(set-info :smt-lib-version 2.6)
(set-logic UF)
(set-info :source |Benchmarks from the paper: "Extending Sledgehammer with SMT Solvers" by Jasmin Blanchette, Sascha Bohme, and Lawrence C. Paulson, CADE 2011.  Translated to SMT2 by Andrew Reynolds and Morgan Deters.|)
(set-info :category "industrial")
(set-info :status sat)
(declare-sort S1 0)
(declare-sort S2 0)
(declare-sort S3 0)
(declare-sort S4 0)
(declare-sort S5 0)
(declare-sort S6 0)
(declare-sort S7 0)
(declare-sort S8 0)
(declare-sort S9 0)
(declare-sort S10 0)
(declare-sort S11 0)
(declare-sort S12 0)
(declare-sort S13 0)
(declare-sort S14 0)
(declare-sort S15 0)
(declare-sort S16 0)
(declare-sort S17 0)
(declare-sort S18 0)
(declare-sort S19 0)
(declare-sort S20 0)
(declare-sort S21 0)
(declare-sort S22 0)
(declare-sort S23 0)
(declare-sort S24 0)
(declare-sort S25 0)
(declare-sort S26 0)
(declare-sort S27 0)
(declare-sort S28 0)
(declare-sort S29 0)
(declare-sort S30 0)
(declare-sort S31 0)
(declare-sort S32 0)
(declare-sort S33 0)
(declare-sort S34 0)
(declare-sort S35 0)
(declare-sort S36 0)
(declare-sort S37 0)
(declare-sort S38 0)
(declare-sort S39 0)
(declare-sort S40 0)
(declare-sort S41 0)
(declare-sort S42 0)
(declare-sort S43 0)
(declare-sort S44 0)
(declare-sort S45 0)
(declare-sort S46 0)
(declare-sort S47 0)
(declare-sort S48 0)
(declare-sort S49 0)
(declare-sort S50 0)
(declare-fun f1 () S1)
(declare-fun f2 () S1)
(declare-fun f3 (S3 S2) S1)
(declare-fun f4 () S3)
(declare-fun f5 (S5 S2) S2)
(declare-fun f6 (S6 S2) S5)
(declare-fun f7 () S6)
(declare-fun f8 (S7 S4) S2)
(declare-fun f9 (S8 S4) S7)
(declare-fun f10 () S8)
(declare-fun f11 () S4)
(declare-fun f12 (S9 S10) S1)
(declare-fun f13 (S11 S4) S9)
(declare-fun f14 (S12 S2) S11)
(declare-fun f15 () S12)
(declare-fun f16 (S13) S10)
(declare-fun f17 (S14 S15) S13)
(declare-fun f18 () S14)
(declare-fun f19 () S15)
(declare-fun f20 (S10 S9) S1)
(declare-fun f21 (S16 S10) S10)
(declare-fun f22 (S10) S16)
(declare-fun f23 (S17 S18) S1)
(declare-fun f24 (S19 S17) S17)
(declare-fun f25 (S17) S19)
(declare-fun f26 (S20 S21) S1)
(declare-fun f27 (S22 S20) S20)
(declare-fun f28 (S20) S22)
(declare-fun f29 (S23 S24) S1)
(declare-fun f30 (S25 S23) S23)
(declare-fun f31 (S23) S25)
(declare-fun f32 (S26 S27) S1)
(declare-fun f33 (S28 S26) S26)
(declare-fun f34 (S26) S28)
(declare-fun f35 (S29 S3) S3)
(declare-fun f36 (S3) S29)
(declare-fun f37 (S30 S4) S1)
(declare-fun f38 (S31 S2) S30)
(declare-fun f39 (S32 S2) S31)
(declare-fun f40 () S32)
(declare-fun f41 () S31)
(declare-fun f42 (S33 S27 S4) S1)
(declare-fun f43 () S33)
(declare-fun f44 (S34 S15) S27)
(declare-fun f45 () S34)
(declare-fun f46 () S2)
(declare-fun f47 () S4)
(declare-fun f48 (S35 S3) S2)
(declare-fun f49 () S35)
(declare-fun f50 (S3) S3)
(declare-fun f51 (S2) S3)
(declare-fun f52 () S2)
(declare-fun f53 () S6)
(declare-fun f54 () S2)
(declare-fun f55 () S7)
(declare-fun f56 (S36 S15) S4)
(declare-fun f57 (S37 S38) S36)
(declare-fun f58 () S37)
(declare-fun f59 () S38)
(declare-fun f60 (S39 S15) S15)
(declare-fun f61 (S40 S17) S39)
(declare-fun f62 () S40)
(declare-fun f63 (S41 S32) S17)
(declare-fun f64 (S42 S32) S41)
(declare-fun f65 (S31) S42)
(declare-fun f66 (S2) S3)
(declare-fun f67 (S18 S17) S1)
(declare-fun f68 (S15) S17)
(declare-fun f69 (S33 S18) S30)
(declare-fun f70 (S43 S4) S4)
(declare-fun f71 (S44 S2) S43)
(declare-fun f72 () S44)
(declare-fun f73 () S6)
(declare-fun f74 () S13)
(declare-fun f75 (S38 S18) S2)
(declare-fun f76 (S45 S18) S27)
(declare-fun f77 () S45)
(declare-fun f78 (S47 S46) S27)
(declare-fun f79 () S47)
(declare-fun f80 (S27 S26) S1)
(declare-fun f81 (S46) S26)
(declare-fun f82 (S2 S3) S1)
(declare-fun f83 (S48 S27) S27)
(declare-fun f84 (S49 S27) S48)
(declare-fun f85 () S49)
(declare-fun f86 () S49)
(declare-fun f87 () S49)
(declare-fun f88 () S49)
(declare-fun f89 () S48)
(declare-fun f90 () S48)
(declare-fun f91 () S47)
(declare-fun f92 (S3) S1)
(declare-fun f93 () S3)
(declare-fun f94 (S26) S1)
(declare-fun f95 (S17) S1)
(declare-fun f96 (S10) S1)
(declare-fun f97 (S4) S3)
(declare-fun f98 (S20) S1)
(declare-fun f99 (S24) S20)
(declare-fun f100 (S23) S1)
(declare-fun f101 (S50) S23)
(declare-fun f102 () S20)
(declare-fun f103 () S23)
(declare-fun f104 () S10)
(declare-fun f105 () S17)
(declare-fun f106 () S26)
(declare-fun f107 (S23) S23)
(declare-fun f108 (S20) S20)
(declare-fun f109 (S10) S10)
(declare-fun f110 (S17) S17)
(declare-fun f111 (S26) S26)
(declare-fun f112 () S4)
(declare-fun f113 () S46)
(declare-fun f114 () S15)
(declare-fun f115 () S50)
(declare-fun f116 () S24)
(declare-fun f117 (S21 S20) S1)
(declare-fun f118 (S24 S23) S1)
(assert (not (= f1 f2)))
(assert (forall ((?v0 S2)) (= (= (f3 f4 ?v0) f1) (exists ((?v1 S4) (?v2 S2)) (and (= ?v0 (f5 (f6 f7 ?v2) (f8 (f9 f10 ?v1) f11))) (= (f12 (f13 (f14 f15 ?v2) ?v1) (f16 (f17 f18 f19))) f1))))))
(assert (forall ((?v0 S10) (?v1 S10) (?v2 S9)) (= (= (f20 (f21 (f22 ?v0) ?v1) ?v2) f1) (and (= (f20 ?v0 ?v2) f1) (= (f20 ?v1 ?v2) f1)))))
(assert (forall ((?v0 S17) (?v1 S17) (?v2 S18)) (= (= (f23 (f24 (f25 ?v0) ?v1) ?v2) f1) (and (= (f23 ?v0 ?v2) f1) (= (f23 ?v1 ?v2) f1)))))
(assert (forall ((?v0 S20) (?v1 S20) (?v2 S21)) (= (= (f26 (f27 (f28 ?v0) ?v1) ?v2) f1) (and (= (f26 ?v0 ?v2) f1) (= (f26 ?v1 ?v2) f1)))))
(assert (forall ((?v0 S23) (?v1 S23) (?v2 S24)) (= (= (f29 (f30 (f31 ?v0) ?v1) ?v2) f1) (and (= (f29 ?v0 ?v2) f1) (= (f29 ?v1 ?v2) f1)))))
(assert (forall ((?v0 S26) (?v1 S26) (?v2 S27)) (= (= (f32 (f33 (f34 ?v0) ?v1) ?v2) f1) (and (= (f32 ?v0 ?v2) f1) (= (f32 ?v1 ?v2) f1)))))
(assert (forall ((?v0 S3) (?v1 S3) (?v2 S2)) (= (= (f3 (f35 (f36 ?v0) ?v1) ?v2) f1) (and (= (f3 ?v0 ?v2) f1) (= (f3 ?v1 ?v2) f1)))))
(assert (forall ((?v0 S2) (?v1 S2) (?v2 S4)) (= (= (f37 (f38 (f39 f40 ?v0) ?v1) ?v2) f1) true)))
(assert (forall ((?v0 S2) (?v1 S4)) (= (= (f37 (f38 f41 ?v0) ?v1) f1) false)))
(assert (not (= (f42 f43 (f44 f45 f19) f11) f1)))
(assert (= (f12 (f13 (f14 f15 f46) f47) (f16 (f17 f18 f19))) f1))
(assert (= (f48 f49 (f50 f4)) (f5 (f6 f7 f46) (f8 (f9 f10 f47) f11))))
(assert (let ((?v_1 (f8 f55 (f56 (f57 f58 f59) (f60 (f61 f62 (f63 (f64 (f65 f41) f40) f40)) f19))))) (let ((?v_0 (f5 (f6 f53 (f5 (f6 f7 f54) (f48 f49 (f50 f4)))) ?v_1))) (and (= (f3 (f51 f52) ?v_0) f1) (= (f3 (f66 ?v_0) ?v_1) f1)))))
(assert (forall ((?v0 S18)) (=> (= (f67 ?v0 (f68 f19)) f1) (= (f37 (f69 f43 ?v0) (f70 (f71 f72 (f5 (f6 f7 (f5 (f6 f73 f46) (f5 (f6 f53 (f5 (f6 f7 f54) (f48 f49 (f50 f4)))) (f8 f55 (f56 (f57 f58 f59) (f60 (f61 f62 (f63 (f64 (f65 f41) f40) f40)) f19)))))) (f8 (f9 f10 f47) f11))) f11)) f1))))
(assert (not (= (f17 f18 f19) f74)))
(assert (not (= (f17 f18 f19) f74)))
(assert (= (f12 (f13 (f14 f15 f46) f47) (f16 (f17 f18 f19))) f1))
(assert (forall ((?v0 S18)) (=> (= (f67 ?v0 (f68 f19)) f1) (not (= (f75 f59 ?v0) f52)))))
(assert (forall ((?v0 S18)) (=> (= (f67 ?v0 (f68 f19)) f1) (= (f37 (f69 f43 ?v0) (f70 (f71 f72 f54) f11)) f1))))
(assert (exists ((?v0 S2)) (forall ((?v1 S18)) (=> (= (f67 ?v1 (f68 f19)) f1) (= (f37 (f69 f43 ?v1) (f70 (f71 f72 ?v0) f11)) f1)))))
(assert (=> (forall ((?v0 S2)) (=> (forall ((?v1 S18)) (=> (= (f67 ?v1 (f68 f19)) f1) (= (f37 (f69 f43 ?v1) (f70 (f71 f72 ?v0) f11)) f1))) false)) false))
(assert (forall ((?v0 S18) (?v1 S4)) (= (= (f42 f43 (f76 f77 ?v0) ?v1) f1) (not (= (f37 (f69 f43 ?v0) ?v1) f1)))))
(assert (= (f48 f49 (f50 f4)) (f5 (f6 f7 f46) (f8 (f9 f10 f47) f11))))
(assert (forall ((?v0 S46) (?v1 S4)) (= (= (f42 f43 (f78 f79 ?v0) ?v1) f1) (forall ((?v2 S27)) (=> (= (f80 ?v2 (f81 ?v0)) f1) (= (f42 f43 ?v2 ?v1) f1))))))
(assert (let ((?v_0 (f50 f4))) (= (f82 (f48 f49 ?v_0) ?v_0) f1)))
(assert (forall ((?v0 S27) (?v1 S27) (?v2 S4)) (= (= (f42 f43 (f83 (f84 f85 ?v0) ?v1) ?v2) f1) (= (f42 f43 (f83 (f84 f86 ?v0) ?v1) ?v2) f1))))
(assert (forall ((?v0 S27) (?v1 S27) (?v2 S4)) (= (= (f42 f43 (f83 (f84 f87 ?v0) ?v1) ?v2) f1) (= (f42 f43 (f83 (f84 f88 ?v0) ?v1) ?v2) f1))))
(assert (forall ((?v0 S27) (?v1 S4)) (= (= (f42 f43 (f83 f89 ?v0) ?v1) f1) (= (f42 f43 (f83 f90 ?v0) ?v1) f1))))
(assert (forall ((?v0 S46) (?v1 S4)) (= (= (f42 f43 (f78 f91 ?v0) ?v1) f1) (exists ((?v2 S27)) (and (= (f80 ?v2 (f81 ?v0)) f1) (= (f42 f43 ?v2 ?v1) f1))))))
(assert (=> (forall ((?v0 S2) (?v1 S4)) (=> (= (f12 (f13 (f14 f15 ?v0) ?v1) (f16 (f17 f18 f19))) f1) (=> (= (f48 f49 (f50 f4)) (f5 (f6 f7 ?v0) (f8 (f9 f10 ?v1) f11))) false))) false))
(assert (= (f92 (f50 f4)) f1))
(assert (not (= (f50 f4) f93)))
(assert (forall ((?v0 S46)) (= (f94 (f81 ?v0)) f1)))
(assert (forall ((?v0 S15)) (= (f95 (f68 ?v0)) f1)))
(assert (forall ((?v0 S13)) (= (f96 (f16 ?v0)) f1)))
(assert (forall ((?v0 S4)) (= (f92 (f97 ?v0)) f1)))
(assert (forall ((?v0 S24)) (= (f98 (f99 ?v0)) f1)))
(assert (forall ((?v0 S50)) (= (f100 (f101 ?v0)) f1)))
(assert (= (f92 f93) f1))
(assert (= (f98 f102) f1))
(assert (= (f100 f103) f1))
(assert (= (f96 f104) f1))
(assert (= (f95 f105) f1))
(assert (= (f94 f106) f1))
(assert (forall ((?v0 S3) (?v1 S3)) (=> (or (= (f92 (f50 ?v0)) f1) (= (f92 (f50 ?v1)) f1)) (= (f92 (f50 (f35 (f36 ?v0) ?v1))) f1))))
(assert (forall ((?v0 S23) (?v1 S23)) (=> (or (= (f100 (f107 ?v0)) f1) (= (f100 (f107 ?v1)) f1)) (= (f100 (f107 (f30 (f31 ?v0) ?v1))) f1))))
(assert (forall ((?v0 S20) (?v1 S20)) (=> (or (= (f98 (f108 ?v0)) f1) (= (f98 (f108 ?v1)) f1)) (= (f98 (f108 (f27 (f28 ?v0) ?v1))) f1))))
(assert (forall ((?v0 S10) (?v1 S10)) (=> (or (= (f96 (f109 ?v0)) f1) (= (f96 (f109 ?v1)) f1)) (= (f96 (f109 (f21 (f22 ?v0) ?v1))) f1))))
(assert (forall ((?v0 S17) (?v1 S17)) (=> (or (= (f95 (f110 ?v0)) f1) (= (f95 (f110 ?v1)) f1)) (= (f95 (f110 (f24 (f25 ?v0) ?v1))) f1))))
(assert (forall ((?v0 S26) (?v1 S26)) (=> (or (= (f94 (f111 ?v0)) f1) (= (f94 (f111 ?v1)) f1)) (= (f94 (f111 (f33 (f34 ?v0) ?v1))) f1))))
(assert (forall ((?v0 S4)) (= (f8 (f9 f10 f112) ?v0) f52)))
(assert (forall ((?v0 S4)) (= (f8 (f9 f10 ?v0) f112) f52)))
(assert (forall ((?v0 S3)) (=> (= (f92 ?v0) f1) (=> (not (= ?v0 f93)) (= (f82 (f48 f49 ?v0) ?v0) f1)))))
(assert (= (f81 f113) f106))
(assert (= (f68 f114) f105))
(assert (= (f16 f74) f104))
(assert (= (f101 f115) f103))
(assert (= (f99 f116) f102))
(assert (= (f97 f112) f93))
(assert (forall ((?v0 S46)) (= (= f106 (f81 ?v0)) (= ?v0 f113))))
(assert (forall ((?v0 S15)) (= (= f105 (f68 ?v0)) (= ?v0 f114))))
(assert (forall ((?v0 S13)) (= (= f104 (f16 ?v0)) (= ?v0 f74))))
(assert (forall ((?v0 S50)) (= (= f103 (f101 ?v0)) (= ?v0 f115))))
(assert (forall ((?v0 S24)) (= (= f102 (f99 ?v0)) (= ?v0 f116))))
(assert (forall ((?v0 S4)) (= (= f93 (f97 ?v0)) (= ?v0 f112))))
(assert (forall ((?v0 S46)) (= (= (f81 ?v0) f106) (= ?v0 f113))))
(assert (forall ((?v0 S15)) (= (= (f68 ?v0) f105) (= ?v0 f114))))
(assert (forall ((?v0 S13)) (= (= (f16 ?v0) f104) (= ?v0 f74))))
(assert (forall ((?v0 S50)) (= (= (f101 ?v0) f103) (= ?v0 f115))))
(assert (forall ((?v0 S24)) (= (= (f99 ?v0) f102) (= ?v0 f116))))
(assert (forall ((?v0 S4)) (= (= (f97 ?v0) f93) (= ?v0 f112))))
(assert (forall ((?v0 S2)) (=> (= (f82 ?v0 f93) f1) false)))
(assert (forall ((?v0 S27)) (=> (= (f80 ?v0 f106) f1) false)))
(assert (forall ((?v0 S18)) (=> (= (f67 ?v0 f105) f1) false)))
(assert (forall ((?v0 S9)) (=> (= (f12 ?v0 f104) f1) false)))
(assert (forall ((?v0 S21)) (=> (= (f117 ?v0 f102) f1) false)))
(assert (forall ((?v0 S24)) (=> (= (f118 ?v0 f103) f1) false)))
(assert (forall ((?v0 S3) (?v1 S2)) (=> (= ?v0 f93) (not (= (f82 ?v1 ?v0) f1)))))
(assert (forall ((?v0 S26) (?v1 S27)) (=> (= ?v0 f106) (not (= (f80 ?v1 ?v0) f1)))))
(assert (forall ((?v0 S17) (?v1 S18)) (=> (= ?v0 f105) (not (= (f67 ?v1 ?v0) f1)))))
(assert (forall ((?v0 S10) (?v1 S9)) (=> (= ?v0 f104) (not (= (f12 ?v1 ?v0) f1)))))
(assert (forall ((?v0 S20) (?v1 S21)) (=> (= ?v0 f102) (not (= (f117 ?v1 ?v0) f1)))))
(assert (forall ((?v0 S23) (?v1 S24)) (=> (= ?v0 f103) (not (= (f118 ?v1 ?v0) f1)))))
(assert (forall ((?v0 S3)) (= (= (f50 ?v0) f93) (forall ((?v1 S2)) (not (= (f3 ?v0 ?v1) f1))))))
(assert (forall ((?v0 S20)) (= (= (f108 ?v0) f102) (forall ((?v1 S21)) (not (= (f26 ?v0 ?v1) f1))))))
(assert (forall ((?v0 S23)) (= (= (f107 ?v0) f103) (forall ((?v1 S24)) (not (= (f29 ?v0 ?v1) f1))))))
(assert (forall ((?v0 S10)) (= (= (f109 ?v0) f104) (forall ((?v1 S9)) (not (= (f20 ?v0 ?v1) f1))))))
(assert (forall ((?v0 S17)) (= (= (f110 ?v0) f105) (forall ((?v1 S18)) (not (= (f23 ?v0 ?v1) f1))))))
(assert (forall ((?v0 S26)) (= (= (f111 ?v0) f106) (forall ((?v1 S27)) (not (= (f32 ?v0 ?v1) f1))))))
(assert (forall ((?v0 S2)) (= (= (f82 ?v0 f93) f1) false)))
(assert (forall ((?v0 S27)) (= (= (f80 ?v0 f106) f1) false)))
(assert (forall ((?v0 S18)) (= (= (f67 ?v0 f105) f1) false)))
(assert (forall ((?v0 S9)) (= (= (f12 ?v0 f104) f1) false)))
(assert (forall ((?v0 S21)) (= (= (f117 ?v0 f102) f1) false)))
(assert (forall ((?v0 S24)) (= (= (f118 ?v0 f103) f1) false)))
(assert (forall ((?v0 S3)) (= (= f93 (f50 ?v0)) (forall ((?v1 S2)) (not (= (f3 ?v0 ?v1) f1))))))
(assert (forall ((?v0 S20)) (= (= f102 (f108 ?v0)) (forall ((?v1 S21)) (not (= (f26 ?v0 ?v1) f1))))))
(assert (forall ((?v0 S23)) (= (= f103 (f107 ?v0)) (forall ((?v1 S24)) (not (= (f29 ?v0 ?v1) f1))))))
(assert (forall ((?v0 S10)) (= (= f104 (f109 ?v0)) (forall ((?v1 S9)) (not (= (f20 ?v0 ?v1) f1))))))
(assert (forall ((?v0 S17)) (= (= f105 (f110 ?v0)) (forall ((?v1 S18)) (not (= (f23 ?v0 ?v1) f1))))))
(assert (forall ((?v0 S26)) (= (= f106 (f111 ?v0)) (forall ((?v1 S27)) (not (= (f32 ?v0 ?v1) f1))))))
(assert (forall ((?v0 S3)) (= (forall ((?v1 S2)) (=> (= (f82 ?v1 f93) f1) (= (f3 ?v0 ?v1) f1))) true)))
(assert (forall ((?v0 S26)) (= (forall ((?v1 S27)) (=> (= (f80 ?v1 f106) f1) (= (f32 ?v0 ?v1) f1))) true)))
(assert (forall ((?v0 S17)) (= (forall ((?v1 S18)) (=> (= (f67 ?v1 f105) f1) (= (f23 ?v0 ?v1) f1))) true)))
(assert (forall ((?v0 S10)) (= (forall ((?v1 S9)) (=> (= (f12 ?v1 f104) f1) (= (f20 ?v0 ?v1) f1))) true)))
(assert (forall ((?v0 S20)) (= (forall ((?v1 S21)) (=> (= (f117 ?v1 f102) f1) (= (f26 ?v0 ?v1) f1))) true)))
(assert (forall ((?v0 S23)) (= (forall ((?v1 S24)) (=> (= (f118 ?v1 f103) f1) (= (f29 ?v0 ?v1) f1))) true)))
(check-sat)
(exit)
